5510
6355
1742
6835
1254
1531
4569
1836
1855
3872
8102
10172
503
1421
2654
9181
8575
5525
6816
1941
784
9088
3036
8559
1262
3482
4895
8354
7050
6819
1921
4934
5385
414
3025
2191
1313
2237
3109
5910
4646
3032
5032
6348
9900
904
10140
7777
4621
3609
5837
